c status 13 1469274381009
c status 12 1469274381009
s td 5 12 16
b 1 1 8 2 4 6 9 10 12 14 16
b 2 7 8 2 4 5 6 9 11 14 15
b 3 3 8 4 5 9 10 11 12 15 16
b 4 13 2 5 6 10 11 12 14 15 16
b 5 8 2 4 5 6 9 10 11 12 14 15 16
1 5
5 4
5 3
5 2
